certificates/rado_a13_c93_N26.cnf
c Rad2 upper bound instance: x1 + 13*x2 - x3 = 93, interval [1,26]
p cnf 26 104
1 8 12 0
-1 -8 -12 0
1 9 25 0
-1 -9 -25 0
2 8 13 0
-2 -8 -13 0
2 9 26 0
-2 -9 -26 0
1 3 7 0
-1 -3 -7 0
3 8 14 0
-3 -8 -14 0
2 4 7 0
-2 -4 -7 0
4 8 15 0
-4 -8 -15 0
3 5 7 0
-3 -5 -7 0
5 8 16 0
-5 -8 -16 0
4 6 7 0
-4 -6 -7 0
6 8 17 0
-6 -8 -17 0
5 7 0
-5 -7 0
7 8 18 0
-7 -8 -18 0
6 7 8 0
-6 -7 -8 0
8 19 0
-8 -19 0
7 9 0
-7 -9 0
8 9 20 0
-8 -9 -20 0
7 8 10 0
-7 -8 -10 0
8 10 21 0
-8 -10 -21 0
7 9 11 0
-7 -9 -11 0
8 11 22 0
-8 -11 -22 0
7 10 12 0
-7 -10 -12 0
8 12 23 0
-8 -12 -23 0
7 11 13 0
-7 -11 -13 0
8 13 24 0
-8 -13 -24 0
7 12 14 0
-7 -12 -14 0
8 14 25 0
-8 -14 -25 0
7 13 15 0
-7 -13 -15 0
8 15 26 0
-8 -15 -26 0
1 6 16 0
-1 -6 -16 0
7 14 16 0
-7 -14 -16 0
2 6 17 0
-2 -6 -17 0
7 15 17 0
-7 -15 -17 0
3 6 18 0
-3 -6 -18 0
7 16 18 0
-7 -16 -18 0
4 6 19 0
-4 -6 -19 0
7 17 19 0
-7 -17 -19 0
5 6 20 0
-5 -6 -20 0
7 18 20 0
-7 -18 -20 0
6 21 0
-6 -21 0
7 19 21 0
-7 -19 -21 0
6 7 22 0
-6 -7 -22 0
7 20 22 0
-7 -20 -22 0
6 8 23 0
-6 -8 -23 0
7 21 23 0
-7 -21 -23 0
6 9 24 0
-6 -9 -24 0
7 22 24 0
-7 -22 -24 0
6 10 25 0
-6 -10 -25 0
7 23 25 0
-7 -23 -25 0
6 11 26 0
-6 -11 -26 0
7 24 26 0
-7 -24 -26 0
