certificates/rado_a13_c93_N26.drat
-24 -25 -26 0
-9 -16 -25 0
9 24 -25 0
-9 -25 0
d -9 -1 -25 0
24 -25 0
d 9 24 -25 0
-25 -26 0
d -24 -25 -26 0
-6 -23 -4 0
-9 -26 0
-6 -26 0
-26 0
6 -7 0
-7 0
5 0
9 0
24 0
-25 0
-6 0
10 0
23 0
4 0
8 0
21 0
22 0
11 0
0
